10 23
1 2 1
1 3 1
1 4 0
1 5 1
1 6 0
1 7 0
1 8 0
1 9 0
1 10 0
2 3 1
2 4 1
2 5 1
2 6 0
2 7 0
2 8 1
2 9 1
2 10 0
3 4 0
3 5 1
3 6 0
3 7 1
3 8 0
3 9 0
3 10 1
4 5 1
4 6 1
4 7 1
4 8 0
4 9 1
4 10 1
5 6 0
5 7 0
5 8 0
5 9 1
5 10 1
6 7 1
6 8 1
6 9 0
6 10 0
7 8 1
7 9 1
7 10 0
8 9 0
8 10 0
9 10 1
